Route #1: 26 7 14 8 52 46
Route #2: 30 48 29 45 27 4
Route #3: 5 47 36 60 20 37 15 57
Route #4: 34 13 54 19 59 53 35
Route #5: 11 38 10 58 12
Route #6: 40 9 32 44 3
Route #7: 39 31 55 25 50 18 24 49
Route #8: 23 56 41 43 42 64 22
Route #9: 33 16 63 1 62 2
Route #10: 21 61 28 6 51 17
Cost 857